# 3.4.22.16_group0_PF00112_30-85~3.4.22.27_group0_PF00112_30-85.sdpA
# All alignment positions within 5\AA of a ligand/cat site passing the sdpA filter.  Column indices start with 0.
27
30
95
140
142
170
195
